problems/csplib-prob056/sonet-models/noch/O2/minion/model_6_1-s3ring08-solution000001.solution
language Essence 1.3

letting network be
        mset({1, 2, 3, 4, 5}, {1, 2, 3, 4, 5}, {1, 2, 3, 4, 5}, {1, 2, 3, 6, 10}, {1, 7, 12, 13}, {2, 5, 8, 11, 12},
             {3, 8, 9, 10, 12})
$ Visualisation for network
$  1  2  3  4  5
$  1  2  3  4  5
$  1  2  3  4  5
$  1  2  3  6 10
$  1  7 12 13
$  2  5  8 11 12
$  3  8  9 10 12

